peakDumbCharging = 29600; 
Machine = anon_enum(16); 
machineSpeed = [3700,3700,3700,3700,3700,3700,3700,3700,3700,3700,3700,3700,3700,3700,3700,3700]; 
machineLoad = [3700,3700,3700,3700,3700,3700,3700,3700,3700,3700,3700,3700,3700,3700,3700,3700]; 
Car = anon_enum(35); 
demandCar = [6280,3680,11360,4720,3760,4480,10040,4240,1400,4080,280,17600,24280,20360,12640,5440,560,3920,19400,1080,11920,9480,800,5440,16200,31320,5080,7080,10320,16200,14240,28440,3400,13280,12880]; 
arrivalCar = [74,63,62,61,61,61,61,60,60,58,58,57,57,53,52,50,49,49,47,45,43,42,41,40,39,37,37,36,36,33,29,27,25,25,18]; 
departureCar = [77,66,66,65,64,63,66,64,62,62,59,66,67,60,57,54,62,51,62,47,47,46,42,44,45,70,41,58,43,41,35,36,27,42,23]; 
